100
150
99
99
99
99
98
97
97
97
96
95
95
95
93
93
93
92
92
91
91
91
90
90
89
88
87
87
86
84
83
82
81
80
79
79
79
78
78
77
77
76
74
73
72
71
70
69
69
68
66
66
65
65
65
64
63
63
63
63
62
61
60
60
59
57
57
54
54
52
49
48
48
47
47
47
47
46
46
45
44
43
43
37
37
36
36
34
33
32
30
30
30
27
25
22
22
22
21
21
20
20
